\* Problem: Unknown *\

Maximize
 obj: + xp_0_0 + xp_0_1 + xp_0_2 + xp_1_0 + xp_1_1 + xp_2_0 + xp_2_1
 + xp_3_0 + xp_3_1 + xp_3_2 + xp_4_0 + xp_4_1 + xp_4_2 + xp_4_3 + xp_4_4
 + xp_5_0 + xp_6_0 + xp_7_0 + xp_8_0 + xp_9_0 + xp_9_1 + xp_9_2 + xp_9_3
 + xp_10_0 + xp_11_0 + xp_11_1 + xp_12_0 + xp_12_1 + xp_12_2 + xp_12_3
 + xp_12_4 + xp_12_5 + xp_13_0 + xp_13_1 + xp_13_2 + xp_14_0 + xp_14_1
 + xp_15_0 + xp_15_1 + xp_15_2 + xp_16_0 + xp_17_0 + xp_17_1 + xp_18_0
 + xp_18_1 + xp_18_2 + xp_18_3 + xp_18_4 + xp_18_5 + xp_19_0 + xp_19_1
 + xp_19_2 + xp_19_3 + xp_19_4 + xp_19_5 + xp_20_0 + xp_21_0 + xp_21_1
 + xp_21_2 + xp_22_0 + xp_22_1 + xp_23_0 + xp_24_0 + xp_24_1 + xp_24_2
 + xp_24_3 + xp_24_4 + xp_24_5 + xp_24_6 + xp_24_7 + xp_24_8 + xp_24_9
 + xp_25_0 + xp_26_0 + xp_26_1 + xp_26_2 + xp_26_3 + xp_26_4 + xp_27_0
 + xp_27_1 + xp_28_0 + xp_28_1 + xp_28_2 + xp_28_3 + xp_29_0 + xp_30_0
 + xp_30_1 + xp_30_2 + xp_31_0 + xp_32_0 + xp_32_1 + xp_32_2 + xp_32_3
 + xp_32_4 + xp_32_5 + xp_32_6 + xp_33_0 + xp_34_0 + xp_34_1 + xp_35_0
 + xp_36_0 + xp_36_1 + xp_37_0 + xp_38_0 + xp_38_1 + xp_38_2 + xp_38_3
 + xp_38_4 + xp_39_0 + xp_40_0 + xp_40_1 + xp_40_2 + xp_40_3 + xp_41_0
 + xp_41_1 + xp_42_0 + xp_42_1 + xp_42_2 + xp_42_3 + xp_43_0 + xp_44_0
 + xp_44_1 + xp_44_2 + xp_44_3 + xp_44_4 + xp_45_0 + xp_45_1 + xp_45_2
 + xp_45_3 + xp_45_4 + xp_46_0 + xp_46_1 + xp_46_2 + xp_47_0 + xp_48_0
 + xp_48_1 + xp_48_2 + xp_48_3 + xp_49_0 + xp_49_1 + xp_50_0 + xp_50_1
 + xp_50_2 + xp_50_3 + xp_51_0 + xp_51_1 + xp_52_0 + xp_52_1 + xp_53_0
 + xp_53_1 + xp_53_2 + xp_54_0 + xp_54_1 + xp_55_0 + xp_55_1 + xp_56_0
 + xp_56_1 + xp_56_2 + xp_57_0 + xp_57_1 + xp_58_0 + xp_58_1 + xp_58_2
 + xp_58_3 + xp_59_0 + xp_59_1 + xp_60_0 + xp_60_1 + xp_60_2 + xp_61_0
 + xp_61_1 + xp_62_0 + xp_63_0 + xp_63_1 + xp_64_0 + xp_65_0 + xp_65_1
 + xp_66_0 + xp_67_0 + xp_67_1 + xp_68_0 + xp_68_1 + xp_68_2 + xp_68_3
 + xp_69_0 + xp_70_0 + xp_71_0 + xp_71_1 + xp_72_0 + xp_73_0 + xp_73_1
 + xp_74_0 + xp_74_1 + xp_75_0 + xp_75_1 + xp_76_0 + xp_77_0 + xp_77_1
 + xp_77_2 + xp_77_3 + xp_78_0 + xp_78_1 + xp_78_2 + xp_78_3 + xp_78_4
 + xp_78_5 + xp_78_6 + xp_79_0 + xp_79_1 + xp_79_2 + xp_80_0 + xp_80_1
 + xp_80_2 + xp_80_3 + xp_81_0 + xp_81_1 + xp_81_2 + xp_81_3 + xp_81_4
 + xp_82_0 + xp_82_1 + xp_82_2 + xp_82_3 + xp_83_0 + xp_83_1 + xp_84_0
 + xp_84_1 + xp_85_0 + xp_85_1 + xp_85_2 + xp_85_3 + xp_85_4 + xp_86_0
 + xp_86_1 + xp_87_0 + xp_88_0 + xp_88_1 + xp_89_0 + xp_89_1 + xp_89_2
 + xp_89_3 + xp_90_0 + xp_90_1 + xp_90_2 + xp_90_3 + xp_91_0 + xp_91_1
 + xp_91_2 + xp_92_0 + xp_92_1 + xp_92_2 + xp_92_3 + xp_93_0 + xp_94_0
 + xp_94_1 + xp_94_2 + xp_94_3 + xp_94_4 + xp_94_5 + xp_94_6 + xp_94_7
 + xp_95_0 + xp_95_1 + xp_95_2 + xp_96_0 + xp_96_1 + xp_97_0 + xp_98_0
 + xp_98_1 + xp_98_2 + xp_98_3 + xp_98_4 + xp_99_0 + xp_99_1 + xp_99_2
 + xp_100_0 + xp_100_1 + xp_100_2 + xp_101_0 + xp_102_0 + xp_103_0
 + xp_104_0 + xp_104_1 + xp_104_2 + xp_105_0 + xp_105_1 + xp_106_0
 + xp_106_1 + xp_106_2 + xp_107_0 + xp_108_0 + xp_108_1 + xp_108_2
 + xp_109_0 + xp_109_1 + xp_110_0 + xp_111_0 + xp_111_1 + xp_111_2
 + xp_111_3 + xp_111_4 + xp_112_0 + xp_112_1 + xp_112_2 + xp_112_3
 + xp_112_4 + xp_113_0 + xp_114_0 + xp_115_0 + xp_115_1 + xp_116_0
 + xp_116_1 + xp_117_0 + xp_117_1 + xp_117_2 + xp_118_0 + xp_119_0
 + xp_119_1 + xp_119_2 + xp_119_3 + xp_119_4 + xp_120_0 + xp_120_1
 + xp_120_2 + xp_120_3 + xp_121_0 + xp_122_0 + xp_123_0 + xp_123_1
 + xp_124_0 + xp_124_1 + xp_124_2 + xp_124_3 + xp_125_0 + xp_125_1
 + xp_126_0 + xp_126_1 + xp_126_2 + xp_126_3 + xp_126_4 + xp_126_5
 + xp_126_6 + xp_126_7 + xp_127_0 + xp_127_1 + xp_128_0 + xp_128_1
 + xp_128_2 + xp_128_3 + xp_128_4 + xp_129_0 + xp_129_1 + xp_130_0
 + xp_131_0 + xp_131_1 + xp_131_2 + xp_131_3 + xp_131_4 + xp_131_5

Subject To
 r_1: + xp_128_4 + xp_128_3 + xp_128_2 + xp_128_1 + xp_123_1 + xp_122_0
 + xp_121_0 + xp_108_2 + xp_107_0 + xp_78_6 + xp_78_5 + xp_78_3
 + xp_73_1 + xp_67_1 + xp_57_1 + xp_52_1 + xp_46_2 + xp_46_1 + xp_44_4
 + xp_44_3 + xp_44_2 + xp_40_3 + xp_40_2 + xp_40_1 + xp_28_3 + xp_28_2
 + xp_25_0 + xp_22_1 + xp_19_5 + xp_19_4 + xp_18_5 + xp_18_4 + xp_18_3
 + xp_18_2 + xp_18_1 + xp_16_0 + xp_13_2 + xp_13_1 + xp_4_4 + xp_4_3
 + xp_4_2 + xp_4_1 + xp_4_0 <= 35452.5189478377
 r_2: + xp_131_2 + xp_131_1 + xp_127_1 + xp_126_7 + xp_126_6 + xp_126_5
 + xp_126_3 + xp_120_1 + xp_120_0 + xp_94_5 + xp_94_4 + xp_94_3
 + xp_94_2 + xp_93_0 + xp_90_3 + xp_90_2 + xp_89_2 + xp_89_1 + xp_85_4
 + xp_85_3 + xp_85_2 + xp_85_1 + xp_85_0 + xp_77_2 + xp_77_1 + xp_75_1
 + xp_75_0 + xp_74_1 + xp_71_0 + xp_66_0 + xp_65_1 + xp_65_0 + xp_61_1
 + xp_55_0 + xp_52_0 + xp_48_3 + xp_48_2 + xp_48_1 + xp_48_0 + xp_42_2
 + xp_42_1 + xp_38_2 + xp_38_1 + xp_32_2 + xp_32_1 + xp_32_0 + xp_28_1
 + xp_28_0 + xp_24_4 + xp_24_3 + xp_24_2 + xp_24_1 + xp_24_0 + xp_19_3
 + xp_19_2 + xp_19_1 + xp_19_0 + xp_12_3 + xp_12_1 + xp_1_1
 <= 33694.9152542373
 r_3: + xp_128_4 + xp_126_7 + xp_126_4 + xp_124_3 + xp_124_1 + xp_117_2
 + xp_117_1 + xp_114_0 + xp_106_2 + xp_105_1 + xp_100_2 + xp_98_4
 + xp_98_3 + xp_95_2 + xp_94_6 + xp_94_5 + xp_94_2 + xp_94_1 + xp_92_2
 + xp_91_2 + xp_85_3 + xp_85_2 + xp_84_1 + xp_83_1 + xp_80_3 + xp_79_2
 + xp_76_0 + xp_68_3 + xp_58_2 + xp_48_2 + xp_46_1 + xp_41_1 + xp_40_3
 + xp_34_0 + xp_32_6 + xp_32_2 + xp_30_2 + xp_26_4 + xp_26_3 + xp_24_9
 + xp_24_5 + xp_24_4 + xp_24_3 + xp_21_1 + xp_15_2 + xp_9_2
 <= 34351.5010201108
 r_4: + xp_131_5 + xp_119_4 + xp_119_3 + xp_117_0 + xp_112_3 + xp_112_2
 + xp_111_4 + xp_111_1 + xp_104_1 + xp_95_1 + xp_95_0 + xp_91_1
 + xp_91_0 + xp_88_1 + xp_84_0 + xp_82_1 + xp_81_4 + xp_81_3 + xp_79_1
 + xp_79_0 + xp_78_6 + xp_78_4 + xp_56_2 + xp_53_2 + xp_50_3 + xp_46_2
 + xp_46_0 + xp_45_4 + xp_45_3 + xp_44_4 + xp_44_1 + xp_43_0 + xp_40_2
 + xp_40_1 + xp_40_0 + xp_34_1 + xp_27_1 + xp_19_3 + xp_18_5 + xp_18_4
 + xp_12_5 + xp_4_4 + xp_4_1 + xp_3_2 <= 33979.4209140943
 r_5: + xp_131_5 + xp_130_0 + xp_119_4 + xp_119_3 + xp_112_3 + xp_112_2
 + xp_111_4 + xp_111_1 + xp_104_1 + xp_99_0 + xp_88_1 + xp_82_1
 + xp_81_4 + xp_81_3 + xp_78_6 + xp_78_4 + xp_56_2 + xp_53_2 + xp_50_3
 + xp_45_4 + xp_45_3 + xp_44_4 + xp_44_1 + xp_38_4 + xp_27_1 + xp_19_3
 + xp_18_5 + xp_18_4 + xp_12_5 + xp_7_0 + xp_4_4 + xp_4_1 + xp_3_2
 + xp_2_0 + xp_0_2 <= 34351.5010201108
 r_6: + xp_128_4 + xp_128_3 + xp_126_7 + xp_126_5 + xp_126_4 + xp_126_2
 + xp_119_0 + xp_117_2 + xp_117_1 + xp_114_0 + xp_104_2 + xp_100_2
 + xp_100_1 + xp_95_2 + xp_92_2 + xp_92_1 + xp_91_2 + xp_84_1 + xp_83_1
 + xp_83_0 + xp_82_3 + xp_82_2 + xp_81_0 + xp_80_3 + xp_80_2 + xp_79_2
 + xp_70_0 + xp_68_3 + xp_68_2 + xp_60_2 + xp_58_2 + xp_58_1 + xp_53_0
 + xp_48_2 + xp_48_1 + xp_46_1 + xp_45_0 + xp_44_2 + xp_40_3 + xp_34_0
 + xp_32_6 + xp_32_4 + xp_32_2 + xp_32_1 + xp_30_2 + xp_30_1 + xp_21_2
 + xp_21_1 + xp_18_1 + xp_15_2 + xp_15_1 + xp_9_3 + xp_9_2
 <= 35092.9221035983
 r_7: + xp_131_4 + xp_119_2 + xp_119_1 + xp_112_4 + xp_112_1 + xp_111_3
 + xp_111_2 + xp_104_0 + xp_88_0 + xp_82_0 + xp_81_2 + xp_81_1 + xp_78_5
 + xp_78_2 + xp_59_1 + xp_56_1 + xp_53_1 + xp_50_2 + xp_49_1 + xp_45_2
 + xp_45_1 + xp_44_3 + xp_44_0 + xp_27_0 + xp_19_2 + xp_18_3 + xp_18_2
 + xp_18_0 + xp_12_4 + xp_4_3 + xp_4_2 + xp_3_1 <= 33979.4209140943
 r_8: + xp_131_2 + xp_131_1 + xp_127_1 + xp_126_7 + xp_126_6 + xp_126_5
 + xp_126_3 + xp_120_1 + xp_120_0 + xp_118_0 + xp_103_0 + xp_94_5
 + xp_94_4 + xp_94_3 + xp_94_2 + xp_90_3 + xp_90_2 + xp_89_2 + xp_89_1
 + xp_77_2 + xp_77_1 + xp_74_1 + xp_71_0 + xp_61_1 + xp_55_0 + xp_42_2
 + xp_42_1 + xp_38_2 + xp_38_1 + xp_32_2 + xp_32_1 + xp_32_0 + xp_24_4
 + xp_24_3 + xp_24_2 + xp_24_1 + xp_24_0 + xp_12_3 + xp_12_1 + xp_1_1
 <= 35452.5189478377
 r_9: + xp_131_5 + xp_131_4 + xp_131_3 + xp_131_0 + xp_127_0 + xp_123_1
 + xp_122_0 + xp_120_3 + xp_120_2 + xp_108_2 + xp_78_6 + xp_78_5
 + xp_78_3 + xp_77_3 + xp_77_0 + xp_73_1 + xp_71_1 + xp_67_1 + xp_57_1
 + xp_55_1 + xp_52_1 + xp_46_2 + xp_46_1 + xp_44_4 + xp_44_3 + xp_44_2
 + xp_42_3 + xp_42_0 + xp_33_0 + xp_32_6 + xp_32_5 + xp_32_4 + xp_32_3
 + xp_28_3 + xp_28_2 + xp_24_9 + xp_24_8 + xp_24_7 + xp_24_6 + xp_24_5
 + xp_19_5 + xp_19_4 <= 35723.2704402516
 r_10: + xp_131_5 + xp_131_4 + xp_112_4 + xp_112_3 + xp_112_2 + xp_112_1
 + xp_111_4 + xp_111_3 + xp_111_2 + xp_111_1 + xp_106_0 + xp_99_0
 + xp_98_0 + xp_88_1 + xp_88_0 + xp_85_0 + xp_78_6 + xp_78_5 + xp_78_4
 + xp_78_2 + xp_59_1 + xp_56_2 + xp_56_1 + xp_50_3 + xp_50_2 + xp_49_1
 + xp_38_4 + xp_26_0 + xp_24_7 + xp_24_0 + xp_19_3 + xp_19_2 + xp_12_5
 + xp_12_4 + xp_8_0 + xp_7_0 + xp_4_4 + xp_4_3 + xp_4_2 + xp_4_1
 + xp_3_2 + xp_3_1 + xp_2_0 + xp_0_2 <= 35092.9221035983
 r_11: + xp_128_4 + xp_128_3 + xp_119_0 + xp_117_2 + xp_117_1 + xp_112_0
 + xp_111_0 + xp_104_2 + xp_100_2 + xp_100_1 + xp_95_2 + xp_91_2
 + xp_84_1 + xp_82_3 + xp_82_2 + xp_81_0 + xp_80_3 + xp_80_2 + xp_79_2
 + xp_78_3 + xp_78_1 + xp_78_0 + xp_60_2 + xp_59_0 + xp_53_0 + xp_50_1
 + xp_50_0 + xp_49_0 + xp_46_1 + xp_45_0 + xp_44_2 + xp_40_3 + xp_34_0
 + xp_21_2 + xp_21_1 + xp_18_1 + xp_15_2 + xp_15_1 + xp_9_3 + xp_9_2
 + xp_4_0 + xp_3_0 <= 34084.3281686563
 r_12: + xp_129_1 + xp_128_1 + xp_128_0 + xp_123_0 + xp_119_4 + xp_119_1
 + xp_117_2 + xp_117_0 + xp_112_2 + xp_112_1 + xp_111_2 + xp_111_1
 + xp_108_1 + xp_101_0 + xp_95_0 + xp_91_1 + xp_82_3 + xp_82_1 + xp_82_0
 + xp_81_4 + xp_81_1 + xp_80_1 + xp_79_1 + xp_78_4 + xp_78_2 + xp_78_0
 + xp_73_0 + xp_63_1 + xp_60_1 + xp_50_3 + xp_50_2 + xp_50_1 + xp_46_0
 + xp_45_4 + xp_45_1 + xp_44_1 + xp_44_0 + xp_40_2 + xp_40_0 + xp_18_5
 + xp_18_2 + xp_18_0 + xp_17_1 + xp_15_2 + xp_15_1 + xp_15_0 + xp_14_0
 + xp_13_1 + xp_13_0 + xp_9_0 + xp_4_2 + xp_4_1 <= 34169.1039617123
 r_13: + xp_129_0 + xp_128_2 + xp_126_6 + xp_126_1 + xp_123_1 + xp_120_2
 + xp_120_1 + xp_119_3 + xp_119_2 + xp_112_4 + xp_112_3 + xp_111_4
 + xp_111_3 + xp_109_1 + xp_100_0 + xp_96_1 + xp_95_1 + xp_92_3
 + xp_91_0 + xp_90_3 + xp_90_0 + xp_81_3 + xp_81_2 + xp_80_0 + xp_79_0
 + xp_78_6 + xp_78_5 + xp_75_1 + xp_73_1 + xp_68_0 + xp_63_0 + xp_60_0
 + xp_59_1 + xp_58_3 + xp_54_1 + xp_53_2 + xp_53_1 + xp_49_1 + xp_48_3
 + xp_46_2 + xp_45_3 + xp_45_2 + xp_44_4 + xp_44_3 + xp_40_1 + xp_34_1
 + xp_32_5 + xp_31_0 + xp_30_0 + xp_18_4 + xp_18_3 + xp_17_0 + xp_13_2
 + xp_9_1 + xp_4_4 + xp_4_3 <= 34084.3281686563
 r_14: + xp_131_3 + xp_131_2 + xp_131_1 + xp_131_0 + xp_126_7 + xp_126_5
 + xp_126_4 + xp_126_2 + xp_125_1 + xp_125_0 + xp_124_3 + xp_124_2
 + xp_124_1 + xp_124_0 + xp_115_1 + xp_115_0 + xp_106_2 + xp_106_1
 + xp_99_2 + xp_99_1 + xp_98_4 + xp_98_3 + xp_98_2 + xp_98_1 + xp_94_7
 + xp_94_6 + xp_94_5 + xp_94_4 + xp_94_3 + xp_94_2 + xp_94_1 + xp_94_0
 + xp_92_2 + xp_92_1 + xp_86_1 + xp_86_0 + xp_85_4 + xp_85_3 + xp_85_2
 + xp_85_1 + xp_77_3 + xp_77_2 + xp_77_1 + xp_77_0 + xp_68_3 + xp_68_2
 + xp_65_1 + xp_65_0 + xp_58_2 + xp_58_1 + xp_56_0 + xp_51_1 + xp_51_0
 + xp_48_2 + xp_48_1 + xp_41_1 + xp_41_0 + xp_38_3 + xp_38_2 + xp_38_1
 + xp_38_0 + xp_35_0 + xp_32_6 + xp_32_4 + xp_32_2 + xp_32_1 + xp_30_2
 + xp_30_1 + xp_26_4 + xp_26_3 + xp_26_2 + xp_26_1 + xp_24_9 + xp_24_8
 + xp_24_6 + xp_24_5 + xp_24_4 + xp_24_3 + xp_24_2 + xp_24_1 + xp_20_0
 + xp_19_5 + xp_19_4 + xp_19_1 + xp_19_0 + xp_12_3 + xp_12_2 + xp_12_1
 + xp_12_0 + xp_2_1 + xp_0_1 + xp_0_0 <= 33979.4209140943
 r_15: + xp_131_1 + xp_131_0 + xp_126_7 + xp_126_6 + xp_126_5 + xp_126_4
 + xp_126_2 + xp_126_1 + xp_125_0 + xp_124_1 + xp_124_0 + xp_120_2
 + xp_120_1 + xp_116_0 + xp_115_0 + xp_109_1 + xp_99_2 + xp_98_3
 + xp_98_1 + xp_96_1 + xp_94_5 + xp_94_4 + xp_94_1 + xp_94_0 + xp_92_3
 + xp_92_2 + xp_92_1 + xp_90_3 + xp_90_0 + xp_89_1 + xp_89_0 + xp_86_0
 + xp_85_3 + xp_85_1 + xp_77_1 + xp_77_0 + xp_75_1 + xp_68_3 + xp_68_2
 + xp_68_0 + xp_65_0 + xp_58_3 + xp_58_2 + xp_58_1 + xp_54_1 + xp_51_0
 + xp_48_3 + xp_48_2 + xp_48_1 + xp_42_1 + xp_42_0 + xp_38_1 + xp_38_0
 + xp_36_0 + xp_32_6 + xp_32_5 + xp_32_4 + xp_32_2 + xp_32_1 + xp_28_2
 + xp_28_0 + xp_26_4 + xp_26_1 + xp_24_9 + xp_24_8 + xp_24_4 + xp_24_1
 + xp_19_4 + xp_19_1 + xp_12_3 + xp_12_0 + xp_11_1 + xp_0_0
 <= 34169.1039617123
 r_16: + xp_128_0 + xp_123_0 + xp_108_1 + xp_108_0 + xp_78_4 + xp_78_2
 + xp_78_1 + xp_78_0 + xp_73_0 + xp_67_0 + xp_57_0 + xp_46_0 + xp_44_1
 + xp_44_0 + xp_40_0 + xp_22_0 + xp_18_0 + xp_13_0 + xp_6_0
 <= 35723.2704402516
 r_17: + xp_131_5 + xp_131_4 + xp_131_3 + xp_129_1 + xp_128_1 + xp_126_0
 + xp_124_3 + xp_124_2 + xp_120_3 + xp_119_4 + xp_119_1 + xp_112_2
 + xp_112_1 + xp_111_2 + xp_111_1 + xp_109_0 + xp_97_0 + xp_95_0
 + xp_94_7 + xp_94_6 + xp_91_1 + xp_90_1 + xp_89_3 + xp_81_4 + xp_81_1
 + xp_80_1 + xp_79_1 + xp_77_3 + xp_71_1 + xp_68_1 + xp_63_1 + xp_62_0
 + xp_61_0 + xp_60_1 + xp_55_1 + xp_51_1 + xp_47_0 + xp_45_4 + xp_45_1
 + xp_42_3 + xp_40_2 + xp_38_4 + xp_38_3 + xp_36_1 + xp_32_3 + xp_28_3
 + xp_24_7 + xp_24_6 + xp_24_5 + xp_22_1 + xp_19_5 + xp_18_5 + xp_18_2
 + xp_17_1 + xp_13_1 + xp_12_5 + xp_12_4 + xp_12_2 + xp_9_0 + xp_4_2
 + xp_4_1 + xp_1_0 + xp_0_2 + xp_0_1 <= 33694.9152542373
 r_18: + xp_131_5 + xp_131_4 + xp_126_6 + xp_126_3 + xp_126_1 + xp_126_0
 + xp_106_0 + xp_99_0 + xp_98_0 + xp_92_3 + xp_92_0 + xp_85_0 + xp_68_1
 + xp_68_0 + xp_58_3 + xp_58_0 + xp_56_2 + xp_56_1 + xp_48_3 + xp_48_0
 + xp_38_4 + xp_32_5 + xp_32_3 + xp_32_0 + xp_30_0 + xp_26_0 + xp_24_7
 + xp_24_0 + xp_19_3 + xp_19_2 + xp_12_5 + xp_12_4 + xp_5_0 + xp_2_0
 + xp_0_2 <= 34084.3281686563
 r_19: + xp_131_3 + xp_131_2 + xp_125_1 + xp_124_3 + xp_124_2 + xp_117_2
 + xp_116_1 + xp_115_1 + xp_110_0 + xp_108_1 + xp_106_2 + xp_106_1
 + xp_104_2 + xp_99_1 + xp_98_4 + xp_98_2 + xp_94_7 + xp_94_6 + xp_94_3
 + xp_94_2 + xp_89_3 + xp_89_2 + xp_86_1 + xp_85_4 + xp_85_2 + xp_84_1
 + xp_82_3 + xp_78_0 + xp_77_3 + xp_77_2 + xp_65_1 + xp_56_0 + xp_51_1
 + xp_50_1 + xp_42_3 + xp_42_2 + xp_38_3 + xp_38_2 + xp_36_1 + xp_28_3
 + xp_28_1 + xp_26_3 + xp_26_2 + xp_24_6 + xp_24_5 + xp_24_3 + xp_24_2
 + xp_21_2 + xp_21_1 + xp_19_5 + xp_19_0 + xp_15_2 + xp_15_1 + xp_14_0
 + xp_12_2 + xp_12_1 + xp_11_0 + xp_3_0 + xp_2_1 + xp_0_1
 <= 34084.3281686563
 r_20: + xp_129_0 + xp_128_4 + xp_128_3 + xp_128_2 + xp_123_1 + xp_119_3
 + xp_119_2 + xp_119_0 + xp_117_1 + xp_112_4 + xp_112_3 + xp_112_0
 + xp_111_4 + xp_111_3 + xp_111_0 + xp_108_2 + xp_108_0 + xp_107_0
 + xp_95_2 + xp_95_1 + xp_91_2 + xp_91_0 + xp_82_2 + xp_81_3 + xp_81_2
 + xp_81_0 + xp_80_3 + xp_80_2 + xp_80_0 + xp_79_2 + xp_79_0 + xp_78_6
 + xp_78_5 + xp_78_3 + xp_78_1 + xp_73_1 + xp_69_0 + xp_64_0 + xp_63_0
 + xp_60_2 + xp_60_0 + xp_50_0 + xp_49_1 + xp_49_0 + xp_46_2 + xp_46_1
 + xp_45_3 + xp_45_2 + xp_45_0 + xp_44_4 + xp_44_3 + xp_44_2 + xp_40_3
 + xp_40_1 + xp_18_4 + xp_18_3 + xp_18_1 + xp_17_0 + xp_14_1 + xp_13_2
 + xp_10_0 + xp_9_3 + xp_9_2 + xp_9_1 + xp_4_4 + xp_4_3 + xp_4_0
 <= 33694.9152542373
 r_21: + xp_128_4 + xp_126_7 + xp_126_4 + xp_124_3 + xp_124_1 + xp_113_0
 + xp_106_2 + xp_105_1 + xp_100_2 + xp_99_2 + xp_99_1 + xp_98_4
 + xp_98_3 + xp_94_6 + xp_94_5 + xp_94_2 + xp_94_1 + xp_92_2 + xp_86_1
 + xp_86_0 + xp_85_3 + xp_85_2 + xp_83_1 + xp_80_3 + xp_77_3 + xp_77_2
 + xp_77_1 + xp_77_0 + xp_68_3 + xp_65_1 + xp_65_0 + xp_58_2 + xp_48_2
 + xp_41_1 + xp_38_3 + xp_38_2 + xp_38_1 + xp_38_0 + xp_32_6 + xp_32_2
 + xp_30_2 + xp_26_4 + xp_26_3 + xp_24_9 + xp_24_5 + xp_24_4 + xp_24_3
 + xp_21_1 + xp_20_0 + xp_15_2 + xp_9_2 + xp_2_1 + xp_0_1 + xp_0_0
 <= 33979.4209140943
 r_22: + xp_128_3 + xp_126_5 + xp_126_2 + xp_124_2 + xp_124_0 + xp_106_1
 + xp_105_0 + xp_100_1 + xp_98_2 + xp_98_1 + xp_94_7 + xp_94_4 + xp_94_3
 + xp_94_0 + xp_92_1 + xp_85_4 + xp_85_1 + xp_83_0 + xp_80_2 + xp_68_2
 + xp_60_2 + xp_58_1 + xp_48_1 + xp_41_0 + xp_32_4 + xp_32_1 + xp_30_1
 + xp_26_2 + xp_26_1 + xp_24_8 + xp_24_6 + xp_24_2 + xp_24_1 + xp_21_2
 + xp_15_1 + xp_9_3 <= 33979.4209140943
 r_23: + xp_128_2 + xp_128_1 + xp_128_0 + xp_119_4 + xp_119_3 + xp_119_2
 + xp_119_1 + xp_117_0 + xp_112_4 + xp_112_3 + xp_112_2 + xp_112_1
 + xp_111_4 + xp_111_3 + xp_111_2 + xp_111_1 + xp_104_1 + xp_104_0
 + xp_100_0 + xp_95_1 + xp_95_0 + xp_91_1 + xp_91_0 + xp_84_0 + xp_82_1
 + xp_82_0 + xp_81_4 + xp_81_3 + xp_81_2 + xp_81_1 + xp_80_1 + xp_80_0
 + xp_79_1 + xp_79_0 + xp_78_6 + xp_78_5 + xp_78_4 + xp_78_2 + xp_73_1
 + xp_73_0 + xp_60_1 + xp_60_0 + xp_59_1 + xp_53_2 + xp_53_1 + xp_50_3
 + xp_50_2 + xp_49_1 + xp_46_2 + xp_46_0 + xp_45_4 + xp_45_3 + xp_45_2
 + xp_45_1 + xp_44_4 + xp_44_3 + xp_44_1 + xp_44_0 + xp_40_2 + xp_40_1
 + xp_40_0 + xp_34_1 + xp_21_0 + xp_18_5 + xp_18_4 + xp_18_3 + xp_18_2
 + xp_18_0 + xp_15_0 + xp_9_1 + xp_9_0 + xp_4_4 + xp_4_3 + xp_4_2
 + xp_4_1 + xp_3_2 + xp_3_1 <= 33979.4209140943
 r_24: + xp_128_0 + xp_126_7 + xp_126_6 + xp_126_5 + xp_126_3 + xp_103_0
 + xp_94_5 + xp_94_4 + xp_94_3 + xp_94_2 + xp_90_3 + xp_90_2 + xp_89_2
 + xp_89_1 + xp_74_1 + xp_61_1 + xp_40_0 + xp_39_0 + xp_38_2 + xp_38_1
 + xp_22_0 + xp_18_0 + xp_13_0 + xp_12_3 + xp_12_1 + xp_1_1
 <= 35723.2704402516
 r_25: + xp_131_5 + xp_131_4 + xp_131_3 + xp_131_0 + xp_127_0 + xp_126_4
 + xp_126_2 + xp_126_1 + xp_126_0 + xp_120_3 + xp_120_2 + xp_94_7
 + xp_94_6 + xp_94_1 + xp_94_0 + xp_90_1 + xp_90_0 + xp_89_3 + xp_89_0
 + xp_77_3 + xp_77_0 + xp_74_0 + xp_71_1 + xp_61_0 + xp_55_1 + xp_52_1
 + xp_42_3 + xp_42_0 + xp_38_4 + xp_38_3 + xp_38_0 + xp_32_6 + xp_32_5
 + xp_32_4 + xp_32_3 + xp_28_3 + xp_28_2 + xp_24_9 + xp_24_8 + xp_24_7
 + xp_24_6 + xp_24_5 + xp_19_5 + xp_19_4 + xp_12_5 + xp_12_4 + xp_12_2
 + xp_12_0 + xp_1_0 <= 35723.2704402516
 r_26: + xp_128_4 + xp_128_3 + xp_128_2 + xp_128_1 + xp_123_1 + xp_121_0
 + xp_112_4 + xp_112_3 + xp_112_2 + xp_112_1 + xp_112_0 + xp_108_2
 + xp_107_0 + xp_81_4 + xp_81_3 + xp_81_2 + xp_81_1 + xp_81_0 + xp_79_2
 + xp_79_1 + xp_79_0 + xp_78_6 + xp_78_5 + xp_78_3 + xp_73_1 + xp_67_1
 + xp_64_0 + xp_60_2 + xp_60_1 + xp_60_0 + xp_57_1 + xp_47_0 + xp_46_2
 + xp_46_1 + xp_44_4 + xp_44_3 + xp_44_2 + xp_40_3 + xp_40_2 + xp_40_1
 + xp_37_0 + xp_29_0 + xp_25_0 + xp_22_1 + xp_18_5 + xp_18_4 + xp_18_3
 + xp_18_2 + xp_18_1 + xp_17_1 + xp_17_0 + xp_13_2 + xp_13_1 + xp_4_4
 + xp_4_3 + xp_4_2 + xp_4_1 + xp_4_0 <= 33694.9152542373
 r_27: + xp_131_1 + xp_127_1 + xp_126_7 + xp_126_6 + xp_126_5 + xp_125_0
 + xp_120_1 + xp_117_1 + xp_116_0 + xp_115_0 + xp_108_0 + xp_99_2
 + xp_98_3 + xp_98_1 + xp_96_1 + xp_94_5 + xp_94_4 + xp_92_3 + xp_92_2
 + xp_92_1 + xp_90_3 + xp_89_1 + xp_86_0 + xp_85_3 + xp_85_1 + xp_82_2
 + xp_78_1 + xp_77_1 + xp_75_1 + xp_74_1 + xp_72_0 + xp_67_0 + xp_65_0
 + xp_58_3 + xp_58_2 + xp_58_1 + xp_57_0 + xp_54_1 + xp_52_0 + xp_50_0
 + xp_48_3 + xp_48_2 + xp_48_1 + xp_42_1 + xp_38_1 + xp_32_2 + xp_32_1
 + xp_28_0 + xp_26_4 + xp_26_1 + xp_24_4 + xp_24_1 + xp_23_0 + xp_19_1
 + xp_14_1 + xp_12_3 + xp_11_1 <= 33694.9152542373
 r_28: + xp_131_5 + xp_131_4 + xp_131_3 + xp_131_2 + xp_126_3 + xp_126_0
 + xp_125_1 + xp_124_3 + xp_124_2 + xp_120_3 + xp_120_0 + xp_116_1
 + xp_115_1 + xp_109_0 + xp_99_1 + xp_99_0 + xp_98_4 + xp_98_2 + xp_98_0
 + xp_96_0 + xp_94_7 + xp_94_6 + xp_94_3 + xp_94_2 + xp_92_0 + xp_90_2
 + xp_90_1 + xp_89_3 + xp_89_2 + xp_86_1 + xp_85_4 + xp_85_2 + xp_85_0
 + xp_77_3 + xp_77_2 + xp_75_0 + xp_68_1 + xp_65_1 + xp_58_0 + xp_54_0
 + xp_51_1 + xp_48_0 + xp_42_3 + xp_42_2 + xp_38_4 + xp_38_3 + xp_38_2
 + xp_36_1 + xp_32_3 + xp_32_0 + xp_28_3 + xp_28_1 + xp_26_3 + xp_26_2
 + xp_26_0 + xp_24_7 + xp_24_6 + xp_24_5 + xp_24_3 + xp_24_2 + xp_24_0
 + xp_19_5 + xp_19_3 + xp_19_2 + xp_19_0 + xp_12_5 + xp_12_4 + xp_12_2
 + xp_12_1 + xp_11_0 + xp_0_2 + xp_0_1 <= 33694.9152542373
 r_29: + xp_129_1 + xp_129_0 + xp_95_2 + xp_95_1 + xp_95_0 + xp_93_0
 + xp_87_0 + xp_71_1 + xp_71_0 + xp_62_0 + xp_49_1 + xp_49_0 + xp_45_4
 + xp_45_3 + xp_45_2 + xp_45_1 + xp_45_0 + xp_10_0 + xp_9_3 + xp_9_2
 + xp_9_1 + xp_9_0 + xp_1_1 + xp_1_0 <= 33694.9152542373
 r_30: + xp_125_1 + xp_125_0 + xp_121_0 + xp_102_0 + xp_99_2 + xp_99_1
 + xp_99_0 + xp_96_1 + xp_96_0 + xp_92_3 + xp_92_2 + xp_92_1 + xp_92_0
 + xp_57_1 + xp_57_0 + xp_37_0 + xp_26_4 + xp_26_3 + xp_26_2 + xp_26_1
 + xp_26_0 + xp_23_0 + xp_11_1 + xp_11_0 <= 33694.9152542373

Bounds
 0 <= xp_0_0 <= 103.916979392972
 0 <= xp_0_1 <= 129.896224241214
 0 <= xp_0_2 <= 4.78565036678159
 0 <= xp_1_0 <= 144.940659033515
 0 <= xp_1_1 <= 39.6735380566192
 0 <= xp_2_0 <= 2.99914760615742
 0 <= xp_2_1 <= 113.301131788169
 0 <= xp_3_0 <= 128.884859343271
 0 <= xp_3_1 <= 38.5598144756506
 0 <= xp_3_2 <= 16.902932372888
 0 <= xp_4_0 <= 742.850000119825
 0 <= xp_4_1 <= 11.428461540305
 0 <= xp_4_2 <= 4.57138461612202
 0 <= xp_4_3 <= 31.9996923128541
 0 <= xp_4_4 <= 6.85707692418303
 0 <= xp_5_0 <= 1095.48864894244
 0 <= xp_6_0 <= 1811.95168819116
 0 <= xp_7_0 <= 645.416564845082
 0 <= xp_8_0 <= 1526.63277925872
 0 <= xp_9_0 <= 23.2041023450478
 0 <= xp_9_1 <= 33.5518777151367
 0 <= xp_9_2 <= 30.7297571596579
 0 <= xp_9_3 <= 21.9498265426128
 0 <= xp_10_0 <= 55.4509068516217
 0 <= xp_11_0 <= 26.2275028481158
 0 <= xp_11_1 <= 15.760563638088
 0 <= xp_12_0 <= 862.46204123246
 0 <= xp_12_1 <= 173.690272192648
 0 <= xp_12_2 <= 1018.18435423276
 0 <= xp_12_3 <= 17.9679591923429
 0 <= xp_12_4 <= 11.9786394615619
 0 <= xp_12_5 <= 5.98931973078097
 0 <= xp_13_0 <= 10.2209728224615
 0 <= xp_13_1 <= 47.454516675714
 0 <= xp_13_2 <= 197.118761576044
 0 <= xp_14_0 <= 142.746058314638
 0 <= xp_14_1 <= 79.6573986130794
 0 <= xp_15_0 <= 439.322321735168
 0 <= xp_15_1 <= 33.7940247488589
 0 <= xp_15_2 <= 39.6712464443126
 0 <= xp_16_0 <= 2670.50767624715
 0 <= xp_17_0 <= 240.13289747249
 0 <= xp_17_1 <= 60.2483972153202
 0 <= xp_18_0 <= 11.4422112141442
 0 <= xp_18_1 <= 200.758796757257
 0 <= xp_18_2 <= 42.6482417981737
 0 <= xp_18_3 <= 47.849246895512
 0 <= xp_18_4 <= 46.8090458760443
 0 <= xp_18_5 <= 13.5226132530795
 0 <= xp_19_0 <= 668.676429756248
 0 <= xp_19_1 <= 386.482707106823
 0 <= xp_19_2 <= 6.13464614455275
 0 <= xp_19_3 <= 3.06732307227638
 0 <= xp_19_4 <= 3.06732307227638
 0 <= xp_19_5 <= 3.06732307227638
 0 <= xp_20_0 <= 129.696472035163
 0 <= xp_21_0 <= 266.452446748252
 0 <= xp_21_1 <= 6.36304350443586
 0 <= xp_21_2 <= 4.7722826283269
 0 <= xp_22_0 <= 110.674371181821
 0 <= xp_22_1 <= 1135.30483986514
 0 <= xp_23_0 <= 52.5850546946269
 0 <= xp_24_0 <= 19.7422400206656
 0 <= xp_24_1 <= 29.6133600309985
 0 <= xp_24_2 <= 16.7809040175658
 0 <= xp_24_3 <= 29.6133600309985
 0 <= xp_24_4 <= 15.7937920165325
 0 <= xp_24_5 <= 103.646760108495
 0 <= xp_24_6 <= 51.3298240537307
 0 <= xp_24_7 <= 8.88400800929954
 0 <= xp_24_8 <= 47.3813760495975
 0 <= xp_24_9 <= 21.7164640227322
 0 <= xp_25_0 <= 585.36696499735
 0 <= xp_26_0 <= 1.2903686962627
 0 <= xp_26_1 <= 3.42615136593889
 0 <= xp_26_2 <= 2.84771022623492
 0 <= xp_26_3 <= 6.18487064760397
 0 <= xp_26_4 <= 1.77981889139683
 0 <= xp_27_0 <= 185.084359548356
 0 <= xp_27_1 <= 156.685172104428
 0 <= xp_28_0 <= 249.550851149209
 0 <= xp_28_1 <= 419.787090692855
 0 <= xp_28_2 <= 3.86900544417379
 0 <= xp_28_3 <= 1.93450272208689
 0 <= xp_29_0 <= 2475.9629681944
 0 <= xp_30_0 <= 77.5936107633664
 0 <= xp_30_1 <= 64.8384966652788
 0 <= xp_30_2 <= 43.0485100810458
 0 <= xp_31_0 <= 192.81186721363
 0 <= xp_32_0 <= 652.479313973771
 0 <= xp_32_1 <= 65.247931397377
 0 <= xp_32_2 <= 13.0495862794754
 0 <= xp_32_3 <= 1089.6404543362
 0 <= xp_32_4 <= 287.090898148459
 0 <= xp_32_5 <= 45.6735519781639
 0 <= xp_32_6 <= 123.971069655016
 0 <= xp_33_0 <= 8152.81620485372
 0 <= xp_34_0 <= 300.594987535393
 0 <= xp_34_1 <= 216.19146886782
 0 <= xp_35_0 <= 264.058284791013
 0 <= xp_36_0 <= 171.027800627857
 0 <= xp_36_1 <= 151.6138340701
 0 <= xp_37_0 <= 369.095098731105
 0 <= xp_38_0 <= 170.807614878739
 0 <= xp_38_1 <= 6.79348468267711
 0 <= xp_38_2 <= 11.6459737417322
 0 <= xp_38_3 <= 140.722182712598
 0 <= xp_38_4 <= 8.73448030629914
 0 <= xp_39_0 <= 1591.68095845003
 0 <= xp_40_0 <= 36.9207387734126
 0 <= xp_40_1 <= 246.138258489417
 0 <= xp_40_2 <= 132.914659584285
 0 <= xp_40_3 <= 443.048865280952
 0 <= xp_41_0 <= 40.3060230532184
 0 <= xp_41_1 <= 40.5376668638691
 0 <= xp_42_0 <= 142.18537717031
 0 <= xp_42_1 <= 94.7902514468733
 0 <= xp_42_2 <= 38.1794068327684
 0 <= xp_42_3 <= 184.314377813365
 0 <= xp_43_0 <= 497.791854897548
 0 <= xp_44_0 <= 206.045546348397
 0 <= xp_44_1 <= 118.310023387144
 0 <= xp_44_2 <= 136.920588863773
 0 <= xp_44_3 <= 1.32932610547353
 0 <= xp_44_4 <= 1.32932610547353
 0 <= xp_45_0 <= 26.1534073835385
 0 <= xp_45_1 <= 6.29162158754933
 0 <= xp_45_2 <= 5.42806568337589
 0 <= xp_45_3 <= 4.31777952086719
 0 <= xp_45_4 <= 0.863555904173439
 0 <= xp_46_0 <= 1158.86433308538
 0 <= xp_46_1 <= 395.596258282159
 0 <= xp_46_2 <= 69.811104402734
 0 <= xp_47_0 <= 889.213941363384
 0 <= xp_48_0 <= 2291.68258263025
 0 <= xp_48_1 <= 488.667609531451
 0 <= xp_48_2 <= 92.6783397387234
 0 <= xp_48_3 <= 67.4024289008897
 0 <= xp_49_0 <= 87.320741133773
 0 <= xp_49_1 <= 1.78726663139301
 0 <= xp_50_0 <= 168.250939415432
 0 <= xp_50_1 <= 443.363961973097
 0 <= xp_50_2 <= 172.798262102336
 0 <= xp_50_3 <= 9.09464537380713
 0 <= xp_51_0 <= 569.76490454379
 0 <= xp_51_1 <= 148.09773692113
 0 <= xp_52_0 <= 437.801073099021
 0 <= xp_52_1 <= 232.341797565709
 0 <= xp_53_0 <= 96.3479749122299
 0 <= xp_53_1 <= 63.8649433703924
 0 <= xp_53_2 <= 31.9324716851962
 0 <= xp_54_0 <= 2237.75999021938
 0 <= xp_54_1 <= 1498.97798387902
 0 <= xp_55_0 <= 371.055573059334
 0 <= xp_55_1 <= 828.003639882402
 0 <= xp_56_0 <= 96.3504574922287
 0 <= xp_56_1 <= 0.277667024473282
 0 <= xp_56_2 <= 0.277667024473282
 0 <= xp_57_0 <= 50.1771430635514
 0 <= xp_57_1 <= 158.296939426679
 0 <= xp_58_0 <= 2741.40385907702
 0 <= xp_58_1 <= 751.250095997068
 0 <= xp_58_2 <= 645.811486032567
 0 <= xp_58_3 <= 461.293918594691
 0 <= xp_59_0 <= 10583.8654815172
 0 <= xp_59_1 <= 185.140504049865
 0 <= xp_60_0 <= 554.146229901014
 0 <= xp_60_1 <= 129.693798487472
 0 <= xp_60_2 <= 1.96505755284049
 0 <= xp_61_0 <= 2083.62729228904
 0 <= xp_61_1 <= 364.810165653299
 0 <= xp_62_0 <= 132.762267365901
 0 <= xp_63_0 <= 108.906010351957
 0 <= xp_63_1 <= 24.4560865351763
 0 <= xp_64_0 <= 1006.04740255436
 0 <= xp_65_0 <= 364.964085613219
 0 <= xp_65_1 <= 163.552370316298
 0 <= xp_66_0 <= 1699.71691999628
 0 <= xp_67_0 <= 99.6985030720537
 0 <= xp_67_1 <= 309.651821306145
 0 <= xp_68_0 <= 457.016624224571
 0 <= xp_68_1 <= 448.474257416635
 0 <= xp_68_2 <= 307.525205085693
 0 <= xp_68_3 <= 277.626921257917
 0 <= xp_69_0 <= 1738.77248660092
 0 <= xp_70_0 <= 639.08503100985
 0 <= xp_71_0 <= 22.6029360499708
 0 <= xp_71_1 <= 49.1100155994822
 0 <= xp_72_0 <= 606.094407342129
 0 <= xp_73_0 <= 842.889380522479
 0 <= xp_73_1 <= 90.9785363103626
 0 <= xp_74_0 <= 934.06079420197
 0 <= xp_74_1 <= 30.3984282136736
 0 <= xp_75_0 <= 1355.18981486799
 0 <= xp_75_1 <= 429.569601694003
 0 <= xp_76_0 <= 1742.37146372829
 0 <= xp_77_0 <= 301.8916581655
 0 <= xp_77_1 <= 140.993356835535
 0 <= xp_77_2 <= 6.63498149814284
 0 <= xp_77_3 <= 129.382139213785
 0 <= xp_78_0 <= 811.553491907744
 0 <= xp_78_1 <= 1217.33023786162
 0 <= xp_78_2 <= 12254.4577278069
 0 <= xp_78_3 <= 4220.07815792027
 0 <= xp_78_4 <= 7141.67072878815
 0 <= xp_78_5 <= 1298.48558705239
 0 <= xp_78_6 <= 1379.64093624317
 0 <= xp_79_0 <= 247.158025965819
 0 <= xp_79_1 <= 169.9211428515
 0 <= xp_79_2 <= 661.147719458567
 0 <= xp_80_0 <= 53.6176170064061
 0 <= xp_80_1 <= 37.2707825532335
 0 <= xp_80_2 <= 73.8876917283399
 0 <= xp_80_3 <= 63.4257176783096
 0 <= xp_81_0 <= 178.560903182462
 0 <= xp_81_1 <= 18.1587359168607
 0 <= xp_81_2 <= 21.94180589954
 0 <= xp_81_3 <= 28.7513318683627
 0 <= xp_81_4 <= 16.6455079237889
 0 <= xp_82_0 <= 47.1713115881665
 0 <= xp_82_1 <= 49.083662057957
 0 <= xp_82_2 <= 45.8964112749728
 0 <= xp_82_3 <= 80.3187197312024
 0 <= xp_83_0 <= 274.721538788636
 0 <= xp_83_1 <= 235.266849707289
 0 <= xp_84_0 <= 394.940475227112
 0 <= xp_84_1 <= 505.936817938
 0 <= xp_85_0 <= 23.7067293109444
 0 <= xp_85_1 <= 177.800469832083
 0 <= xp_85_2 <= 84.1588890538528
 0 <= xp_85_3 <= 92.4562443126834
 0 <= xp_85_4 <= 35.5600939664166
 0 <= xp_86_0 <= 124.319967628684
 0 <= xp_86_1 <= 49.2307071809588
 0 <= xp_87_0 <= 143.026016951419
 0 <= xp_88_0 <= 212.155175725271
 0 <= xp_88_1 <= 218.322477345192
 0 <= xp_89_0 <= 1726.48390657489
 0 <= xp_89_1 <= 57.9789371610971
 0 <= xp_89_2 <= 12.8842082580216
 0 <= xp_89_3 <= 450.947289030755
 0 <= xp_90_0 <= 6232.73230739949
 0 <= xp_90_1 <= 12402.5077228051
 0 <= xp_90_2 <= 3210.80149169064
 0 <= xp_90_3 <= 125.913783987868
 0 <= xp_91_0 <= 639.447487689669
 0 <= xp_91_1 <= 418.403911698179
 0 <= xp_91_2 <= 1697.29888707752
 0 <= xp_92_0 <= 26.9692213646593
 0 <= xp_92_1 <= 19.7903638791025
 0 <= xp_92_2 <= 6.0147184338449
 0 <= xp_92_3 <= 14.9397844969696
 0 <= xp_93_0 <= 132.095790120088
 0 <= xp_94_0 <= 33.0175501123333
 0 <= xp_94_1 <= 22.0117000748888
 0 <= xp_94_2 <= 35.7690126216944
 0 <= xp_94_3 <= 21.3238344475486
 0 <= xp_94_4 <= 91.4861284362564
 0 <= xp_94_5 <= 35.0811469943541
 0 <= xp_94_6 <= 0.687865627340275
 0 <= xp_94_7 <= 0.687865627340275
 0 <= xp_95_0 <= 10.8568952375206
 0 <= xp_95_1 <= 13.1706597963365
 0 <= xp_95_2 <= 38.0881242758919
 0 <= xp_96_0 <= 46.5590691669416
 0 <= xp_96_1 <= 70.3410397486165
 0 <= xp_97_0 <= 534.248160243506
 0 <= xp_98_0 <= 6.22745644296679
 0 <= xp_98_1 <= 65.1807107697189
 0 <= xp_98_2 <= 14.9458954631203
 0 <= xp_98_3 <= 34.0434285548851
 0 <= xp_98_4 <= 24.4946620090027
 0 <= xp_99_0 <= 0.04755095536028
 0 <= xp_99_1 <= 4.56489171458688
 0 <= xp_99_2 <= 11.9828407507906
 0 <= xp_100_0 <= 203.038951002244
 0 <= xp_100_1 <= 200.117527246816
 0 <= xp_100_2 <= 106.631967073121
 0 <= xp_101_0 <= 253.26135340885
 0 <= xp_102_0 <= 75.9784060226547
 0 <= xp_103_0 <= 1459.31857743162
 0 <= xp_104_0 <= 33.7111447704398
 0 <= xp_104_1 <= 26.8156833401226
 0 <= xp_104_2 <= 73.1685073994771
 0 <= xp_105_0 <= 892.697574004679
 0 <= xp_105_1 <= 576.884753012458
 0 <= xp_106_0 <= 2.64681221403004
 0 <= xp_106_1 <= 21.896355588794
 0 <= xp_106_2 <= 17.4448986833798
 0 <= xp_107_0 <= 455.870436135924
 0 <= xp_108_0 <= 106.03652980881
 0 <= xp_108_1 <= 138.094085332404
 0 <= xp_108_2 <= 616.491452376802
 0 <= xp_109_0 <= 280.760701087082
 0 <= xp_109_1 <= 699.094145706838
 0 <= xp_110_0 <= 135.028290001666
 0 <= xp_111_0 <= 2599.47208700195
 0 <= xp_111_1 <= 127.425102304018
 0 <= xp_111_2 <= 42.4750341013393
 0 <= xp_111_3 <= 144.415115944554
 0 <= xp_111_4 <= 50.9700409216071
 0 <= xp_112_0 <= 4228.45762928677
 0 <= xp_112_1 <= 81.5779606936351
 0 <= xp_112_2 <= 149.559594604998
 0 <= xp_112_3 <= 135.963267822725
 0 <= xp_112_4 <= 149.559594604998
 0 <= xp_113_0 <= 431.210778040854
 0 <= xp_114_0 <= 2430.50922002997
 0 <= xp_115_0 <= 165.546073022969
 0 <= xp_115_1 <= 58.3902815701173
 0 <= xp_116_0 <= 119.676015289523
 0 <= xp_116_1 <= 42.2113077183974
 0 <= xp_117_0 <= 1196.53863037226
 0 <= xp_117_1 <= 169.321504297961
 0 <= xp_117_2 <= 603.913365329393
 0 <= xp_118_0 <= 3197.75782540964
 0 <= xp_119_0 <= 39.7575638411915
 0 <= xp_119_1 <= 7.11259169635995
 0 <= xp_119_2 <= 7.11259169635995
 0 <= xp_119_3 <= 6.93021755029944
 0 <= xp_119_4 <= 2.73561219090767
 0 <= xp_120_0 <= 863.312611333564
 0 <= xp_120_1 <= 1247.70727769376
 0 <= xp_120_2 <= 75.618622890531
 0 <= xp_120_3 <= 12.6031038150885
 0 <= xp_121_0 <= 76.5782355438868
 0 <= xp_122_0 <= 2305.81132733842
 0 <= xp_123_0 <= 411.905854035351
 0 <= xp_123_1 <= 108.946113567321
 0 <= xp_124_0 <= 83.1763602774323
 0 <= xp_124_1 <= 25.1928398917223
 0 <= xp_124_2 <= 22.3936354593088
 0 <= xp_124_3 <= 8.79749964472843
 0 <= xp_125_0 <= 20.4469108049205
 0 <= xp_125_1 <= 7.21189489630912
 0 <= xp_126_0 <= 589.694483870517
 0 <= xp_126_1 <= 2137.64250403062
 0 <= xp_126_2 <= 2579.91336693351
 0 <= xp_126_3 <= 6560.35113305952
 0 <= xp_126_4 <= 1031.9653467734
 0 <= xp_126_5 <= 7223.75742741385
 0 <= xp_126_6 <= 4643.84406048033
 0 <= xp_126_7 <= 958.25353628959
 0 <= xp_127_0 <= 417.164531375736
 0 <= xp_127_1 <= 167.535956375798
 0 <= xp_128_0 <= 15.334896652152
 0 <= xp_128_1 <= 67.2376237825125
 0 <= xp_128_2 <= 96.7278096520354
 0 <= xp_128_3 <= 108.523883999845
 0 <= xp_128_4 <= 123.858780651997
 0 <= xp_129_0 <= 38.982235010819
 0 <= xp_129_1 <= 10.6703198022315
 0 <= xp_130_0 <= 409.150381204453
 0 <= xp_131_0 <= 178.394379354856
 0 <= xp_131_1 <= 129.335925032271
 0 <= xp_131_2 <= 95.8869789032352
 0 <= xp_131_3 <= 365.708477677454
 0 <= xp_131_4 <= 6.6897892258071
 0 <= xp_131_5 <= 2.2299297419357

End
